Nodes = {"at1.at", "be1.be", "ch1.ch", "cz1.cz", "de1.de", "es1.es", "fr1.fr", "gr1.gr", "hr1.hr", "hu1.hu", "ie1.ie", "il1.il", "it1.it", "lu1.lu", "nl1.nl", "ny1.ny", "pl1.pl", "pt1.pt", "se1.se", "si1.si", "sk1.sk", "uk1.uk"};
Arcs = {<"at1.at","be1.be",1,151,0>, <"at1.at","ch1.ch",1,109,1>, <"at1.at","cz1.cz",1,7,0>, <"at1.at","de1.de",1,63,1>, <"at1.at","es1.es",1,464,0>, <"at1.at","fr1.fr",1,197,0>, <"at1.at","gr1.gr",1,157,0>, <"at1.at","hr1.hr",1,6,0>, <"at1.at","hu1.hu",1,8,1>, <"at1.at","ie1.ie",1,538,0>, <"at1.at","il1.il",1,600,0>, <"at1.at","it1.it",1,59,0>, <"at1.at","lu1.lu",1,107,0>, <"at1.at","nl1.nl",1,148,0>, <"at1.at","ny1.ny",1,8214,1>, <"at1.at","pl1.pl",1,18,0>, <"at1.at","pt1.pt",1,741,0>, <"at1.at","se1.se",1,127,0>, <"at1.at","si1.si",1,8,1>, <"at1.at","sk1.sk",1,1,0>, <"at1.at","uk1.uk",1,283,0>, <"be1.be","at1.at",1,151,0>, <"be1.be","ch1.ch",1,25,0>, <"be1.be","cz1.cz",1,102,0>, <"be1.be","de1.de",1,19,0>, <"be1.be","es1.es",1,174,0>, <"be1.be","fr1.fr",1,8,1>, <"be1.be","gr1.gr",1,535,0>, <"be1.be","hr1.hr",1,160,0>, <"be1.be","hu1.hu",1,229,0>, <"be1.be","ie1.ie",1,119,0>, <"be1.be","il1.il",1,1280,0>, <"be1.be","it1.it",1,52,0>, <"be1.be","lu1.lu",1,5,1>, <"be1.be","nl1.nl",1,3,1>, <"be1.be","ny1.ny",1,6234,0>, <"be1.be","pl1.pl",1,160,0>, <"be1.be","pt1.pt",1,329,0>, <"be1.be","se1.se",1,255,0>, <"be1.be","si1.si",1,126,0>, <"be1.be","sk1.sk",1,171,0>, <"be1.be","uk1.uk",1,20,0>, <"ch1.ch","at1.at",1,109,1>, <"ch1.ch","be1.be",1,25,0>, <"ch1.ch","cz1.cz",1,84,0>, <"ch1.ch","de1.de",1,22,0>, <"ch1.ch","es1.es",1,130,0>, <"ch1.ch","fr1.fr",1,21,1>, <"ch1.ch","gr1.gr",1,372,0>, <"ch1.ch","hr1.hr",1,97,0>, <"ch1.ch","hu1.hu",1,169,0>, <"ch1.ch","ie1.ie",1,205,0>, <"ch1.ch","il1.il",1,1022,0>, <"ch1.ch","it1.it",1,10,1>, <"ch1.ch","lu1.lu",1,12,0>, <"ch1.ch","nl1.nl",1,39,0>, <"ch1.ch","ny1.ny",1,6444,0>, <"ch1.ch","pl1.pl",1,154,0>, <"ch1.ch","pt1.pt",1,290,0>, <"ch1.ch","se1.se",1,311,0>, <"ch1.ch","si1.si",1,70,0>, <"ch1.ch","sk1.sk",1,125,0>, <"ch1.ch","uk1.uk",1,67,0>, <"cz1.cz","at1.at",1,7,0>, <"cz1.cz","be1.be",1,102,0>, <"cz1.cz","ch1.ch",1,84,0>, <"cz1.cz","de1.de",1,33,1>, <"cz1.cz","es1.es",1,423,0>, <"cz1.cz","fr1.fr",1,148,0>, <"cz1.cz","gr1.gr",1,230,0>, <"cz1.cz","hr1.hr",1,21,0>, <"cz1.cz","hu1.hu",1,28,0>, <"cz1.cz","ie1.ie",1,439,0>, <"cz1.cz","il1.il",1,739,0>, <"cz1.cz","it1.it",1,49,0>, <"cz1.cz","lu1.lu",1,69,0>, <"cz1.cz","nl1.nl",1,95,0>, <"cz1.cz","ny1.ny",1,7901,0>, <"cz1.cz","pl1.pl",1,11,1>, <"cz1.cz","pt1.pt",1,685,0>, <"cz1.cz","se1.se",1,98,0>, <"cz1.cz","si1.si",1,16,0>, <"cz1.cz","sk1.sk",1,11,1>, <"cz1.cz","uk1.uk",1,214,0>, <"de1.de","at1.at",1,63,1>, <"de1.de","be1.be",1,19,0>, <"de1.de","ch1.ch",1,22,0>, <"de1.de","cz1.cz",1,33,1>, <"de1.de","es1.es",1,247,0>, <"de1.de","fr1.fr",1,42,1>, <"de1.de","gr1.gr",1,369,1>, <"de1.de","hr1.hr",1,72,0>, <"de1.de","hu1.hu",1,115,0>, <"de1.de","ie1.ie",1,234,1>, <"de1.de","il1.il",1,1008,0>, <"de1.de","it1.it",1,22,1>, <"de1.de","lu1.lu",1,7,0>, <"de1.de","nl1.nl",1,19,1>, <"de1.de","ny1.ny",1,6917,0>, <"de1.de","pl1.pl",1,73,0>, <"de1.de","pt1.pt",1,448,0>, <"de1.de","se1.se",1,170,1>, <"de1.de","si1.si",1,50,0>, <"de1.de","sk1.sk",1,75,0>, <"de1.de","uk1.uk",1,80,0>, <"es1.es","at1.at",1,464,0>, <"es1.es","be1.be",1,174,0>, <"es1.es","ch1.ch",1,130,0>, <"es1.es","cz1.cz",1,423,0>, <"es1.es","de1.de",1,247,0>, <"es1.es","fr1.fr",1,108,1>, <"es1.es","gr1.gr",1,750,0>, <"es1.es","hr1.hr",1,416,0>, <"es1.es","hu1.hu",1,570,0>, <"es1.es","ie1.ie",1,174,0>, <"es1.es","il1.il",1,1553,0>, <"es1.es","it1.it",1,192,1>, <"es1.es","lu1.lu",1,181,0>, <"es1.es","nl1.nl",1,216,0>, <"es1.es","ny1.ny",1,4934,0>, <"es1.es","pl1.pl",1,567,0>, <"es1.es","pt1.pt",1,32,1>, <"es1.es","se1.se",1,825,0>, <"es1.es","si1.si",1,364,0>, <"es1.es","sk1.sk",1,494,0>, <"es1.es","uk1.uk",1,136,0>, <"fr1.fr","at1.at",1,197,0>, <"fr1.fr","be1.be",1,8,1>, <"fr1.fr","ch1.ch",1,21,1>, <"fr1.fr","cz1.cz",1,148,0>, <"fr1.fr","de1.de",1,42,1>, <"fr1.fr","es1.es",1,108,1>, <"fr1.fr","gr1.gr",1,569,0>, <"fr1.fr","hr1.hr",1,195,0>, <"fr1.fr","hu1.hu",1,282,0>, <"fr1.fr","ie1.ie",1,94,0>, <"fr1.fr","il1.il",1,1335,0>, <"fr1.fr","it1.it",1,58,0>, <"fr1.fr","lu1.lu",1,15,1>, <"fr1.fr","nl1.nl",1,19,0>, <"fr1.fr","ny1.ny",1,5888,0>, <"fr1.fr","pl1.pl",1,224,0>, <"fr1.fr","pt1.pt",1,235,0>, <"fr1.fr","se1.se",1,351,0>, <"fr1.fr","si1.si",1,156,0>, <"fr1.fr","sk1.sk",1,219,0>, <"fr1.fr","uk1.uk",1,13,1>, <"gr1.gr","at1.at",1,157,0>, <"gr1.gr","be1.be",1,535,0>, <"gr1.gr","ch1.ch",1,372,0>, <"gr1.gr","cz1.cz",1,230,0>, <"gr1.gr","de1.de",1,369,1>, <"gr1.gr","es1.es",1,750,0>, <"gr1.gr","fr1.fr",1,569,0>, <"gr1.gr","hr1.hr",1,119,0>, <"gr1.gr","hu1.hu",1,111,0>, <"gr1.gr","ie1.ie",1,1126,0>, <"gr1.gr","il1.il",1,161,0>, <"gr1.gr","it1.it",1,263,1>, <"gr1.gr","lu1.lu",1,440,0>, <"gr1.gr","nl1.nl",1,553,0>, <"gr1.gr","ny1.ny",1,9518,0>, <"gr1.gr","pl1.pl",1,253,0>, <"gr1.gr","pt1.pt",1,1071,0>, <"gr1.gr","se1.se",1,490,0>, <"gr1.gr","si1.si",1,147,0>, <"gr1.gr","sk1.sk",1,145,0>, <"gr1.gr","uk1.uk",1,745,0>, <"hr1.hr","at1.at",1,6,0>, <"hr1.hr","be1.be",1,160,0>, <"hr1.hr","ch1.ch",1,97,0>, <"hr1.hr","cz1.cz",1,21,0>, <"hr1.hr","de1.de",1,72,0>, <"hr1.hr","es1.es",1,416,0>, <"hr1.hr","fr1.fr",1,195,0>, <"hr1.hr","gr1.gr",1,119,0>, <"hr1.hr","hu1.hu",1,13,1>, <"hr1.hr","ie1.ie",1,551,0>, <"hr1.hr","il1.il",1,544,0>, <"hr1.hr","it1.it",1,46,0>, <"hr1.hr","lu1.lu",1,111,0>, <"hr1.hr","nl1.nl",1,164,0>, <"hr1.hr","ny1.ny",1,8110,0>, <"hr1.hr","pl1.pl",1,44,0>, <"hr1.hr","pt1.pt",1,680,0>, <"hr1.hr","se1.se",1,187,0>, <"hr1.hr","si1.si",1,2,1>, <"hr1.hr","sk1.sk",1,7,0>, <"hr1.hr","uk1.uk",1,291,0>, <"hu1.hu","at1.at",1,8,1>, <"hu1.hu","be1.be",1,229,0>, <"hu1.hu","ch1.ch",1,169,0>, <"hu1.hu","cz1.cz",1,28,0>, <"hu1.hu","de1.de",1,115,0>, <"hu1.hu","es1.es",1,570,0>, <"hu1.hu","fr1.fr",1,282,0>, <"hu1.hu","gr1.gr",1,111,0>, <"hu1.hu","hr1.hr",1,13,1>, <"hu1.hu","ie1.ie",1,677,0>, <"hu1.hu","il1.il",1,485,0>, <"hu1.hu","it1.it",1,102,0>, <"hu1.hu","lu1.lu",1,173,0>, <"hu1.hu","nl1.nl",1,224,0>, <"hu1.hu","ny1.ny",1,8703,0>, <"hu1.hu","pl1.pl",1,29,0>, <"hu1.hu","pt1.pt",1,874,0>, <"hu1.hu","se1.se",1,142,0>, <"hu1.hu","si1.si",1,23,0>, <"hu1.hu","sk1.sk",1,4,1>, <"hu1.hu","uk1.uk",1,385,0>, <"ie1.ie","at1.at",1,538,0>, <"ie1.ie","be1.be",1,119,0>, <"ie1.ie","ch1.ch",1,205,0>, <"ie1.ie","cz1.cz",1,439,0>, <"ie1.ie","de1.de",1,234,1>, <"ie1.ie","es1.es",1,174,0>, <"ie1.ie","fr1.fr",1,94,0>, <"ie1.ie","gr1.gr",1,1126,0>, <"ie1.ie","hr1.hr",1,551,0>, <"ie1.ie","hu1.hu",1,677,0>, <"ie1.ie","il1.il",1,2139,0>, <"ie1.ie","it1.it",1,301,0>, <"ie1.ie","lu1.lu",1,167,0>, <"ie1.ie","nl1.nl",1,126,0>, <"ie1.ie","ny1.ny",1,4742,0>, <"ie1.ie","pl1.pl",1,537,0>, <"ie1.ie","pt1.pt",1,222,0>, <"ie1.ie","se1.se",1,619,0>, <"ie1.ie","si1.si",1,485,0>, <"ie1.ie","sk1.sk",1,574,0>, <"ie1.ie","uk1.uk",1,41,1>, <"il1.il","at1.at",1,600,0>, <"il1.il","be1.be",1,1280,0>, <"il1.il","ch1.ch",1,1022,0>, <"il1.il","cz1.cz",1,739,0>, <"il1.il","de1.de",1,1008,0>, <"il1.il","es1.es",1,1553,0>, <"il1.il","fr1.fr",1,1335,0>, <"il1.il","gr1.gr",1,161,0>, <"il1.il","hr1.hr",1,544,0>, <"il1.il","hu1.hu",1,485,0>, <"il1.il","ie1.ie",1,2139,0>, <"il1.il","it1.it",1,836,1>, <"il1.il","lu1.lu",1,1130,0>, <"il1.il","nl1.nl",1,1302,1>, <"il1.il","ny1.ny",1,11901,0>, <"il1.il","pl1.pl",1,734,0>, <"il1.il","pt1.pt",1,1975,0>, <"il1.il","se1.se",1,1032,0>, <"il1.il","si1.si",1,607,0>, <"il1.il","sk1.sk",1,571,0>, <"il1.il","uk1.uk",1,1598,0>, <"it1.it","at1.at",1,59,0>, <"it1.it","be1.be",1,52,0>, <"it1.it","ch1.ch",1,10,1>, <"it1.it","cz1.cz",1,49,0>, <"it1.it","de1.de",1,22,1>, <"it1.it","es1.es",1,192,1>, <"it1.it","fr1.fr",1,58,0>, <"it1.it","gr1.gr",1,263,1>, <"it1.it","hr1.hr",1,46,0>, <"it1.it","hu1.hu",1,102,0>, <"it1.it","ie1.ie",1,301,0>, <"it1.it","il1.il",1,836,1>, <"it1.it","lu1.lu",1,27,0>, <"it1.it","nl1.nl",1,65,0>, <"it1.it","ny1.ny",1,6934,0>, <"it1.it","pl1.pl",1,107,0>, <"it1.it","pt1.pt",1,382,0>, <"it1.it","se1.se",1,269,0>, <"it1.it","si1.si",1,29,0>, <"it1.it","sk1.sk",1,70,0>, <"it1.it","uk1.uk",1,123,0>, <"lu1.lu","at1.at",1,107,0>, <"lu1.lu","be1.be",1,5,1>, <"lu1.lu","ch1.ch",1,12,0>, <"lu1.lu","cz1.cz",1,69,0>, <"lu1.lu","de1.de",1,7,0>, <"lu1.lu","es1.es",1,181,0>, <"lu1.lu","fr1.fr",1,15,1>, <"lu1.lu","gr1.gr",1,440,0>, <"lu1.lu","hr1.hr",1,111,0>, <"lu1.lu","hu1.hu",1,173,0>, <"lu1.lu","ie1.ie",1,167,0>, <"lu1.lu","il1.il",1,1130,0>, <"lu1.lu","it1.it",1,27,0>, <"lu1.lu","nl1.nl",1,9,0>, <"lu1.lu","ny1.ny",1,6492,0>, <"lu1.lu","pl1.pl",1,123,0>, <"lu1.lu","pt1.pt",1,352,0>, <"lu1.lu","se1.se",1,233,0>, <"lu1.lu","si1.si",1,83,0>, <"lu1.lu","sk1.sk",1,123,0>, <"lu1.lu","uk1.uk",1,43,0>, <"nl1.nl","at1.at",1,148,0>, <"nl1.nl","be1.be",1,3,1>, <"nl1.nl","ch1.ch",1,39,0>, <"nl1.nl","cz1.cz",1,95,0>, <"nl1.nl","de1.de",1,19,1>, <"nl1.nl","es1.es",1,216,0>, <"nl1.nl","fr1.fr",1,19,0>, <"nl1.nl","gr1.gr",1,553,0>, <"nl1.nl","hr1.hr",1,164,0>, <"nl1.nl","hu1.hu",1,224,0>, <"nl1.nl","ie1.ie",1,126,0>, <"nl1.nl","il1.il",1,1302,1>, <"nl1.nl","it1.it",1,65,0>, <"nl1.nl","lu1.lu",1,9,0>, <"nl1.nl","ny1.ny",1,6359,0>, <"nl1.nl","pl1.pl",1,143,0>, <"nl1.nl","pt1.pt",1,384,0>, <"nl1.nl","se1.se",1,217,0>, <"nl1.nl","si1.si",1,131,0>, <"nl1.nl","sk1.sk",1,166,0>, <"nl1.nl","uk1.uk",1,26,1>, <"ny1.ny","at1.at",1,8214,1>, <"ny1.ny","be1.be",1,6234,0>, <"ny1.ny","ch1.ch",1,6444,0>, <"ny1.ny","cz1.cz",1,7901,0>, <"ny1.ny","de1.de",1,6917,0>, <"ny1.ny","es1.es",1,4934,0>, <"ny1.ny","fr1.fr",1,5888,0>, <"ny1.ny","gr1.gr",1,9518,0>, <"ny1.ny","hr1.hr",1,8110,0>, <"ny1.ny","hu1.hu",1,8703,0>, <"ny1.ny","ie1.ie",1,4742,0>, <"ny1.ny","il1.il",1,11901,0>, <"ny1.ny","it1.it",1,6934,0>, <"ny1.ny","lu1.lu",1,6492,0>, <"ny1.ny","nl1.nl",1,6359,0>, <"ny1.ny","pl1.pl",1,8388,0>, <"ny1.ny","pt1.pt",1,4204,0>, <"ny1.ny","se1.se",1,8780,0>, <"ny1.ny","si1.si",1,7854,0>, <"ny1.ny","sk1.sk",1,8350,0>, <"ny1.ny","uk1.uk",1,5566,1>, <"pl1.pl","at1.at",1,18,0>, <"pl1.pl","be1.be",1,160,0>, <"pl1.pl","ch1.ch",1,154,0>, <"pl1.pl","cz1.cz",1,11,1>, <"pl1.pl","de1.de",1,73,0>, <"pl1.pl","es1.es",1,567,0>, <"pl1.pl","fr1.fr",1,224,0>, <"pl1.pl","gr1.gr",1,253,0>, <"pl1.pl","hr1.hr",1,44,0>, <"pl1.pl","hu1.hu",1,29,0>, <"pl1.pl","ie1.ie",1,537,0>, <"pl1.pl","il1.il",1,734,0>, <"pl1.pl","it1.it",1,107,0>, <"pl1.pl","lu1.lu",1,123,0>, <"pl1.pl","nl1.nl",1,143,0>, <"pl1.pl","ny1.ny",1,8388,0>, <"pl1.pl","pt1.pt",1,865,0>, <"pl1.pl","se1.se",1,49,1>, <"pl1.pl","si1.si",1,46,0>, <"pl1.pl","sk1.sk",1,18,0>, <"pl1.pl","uk1.uk",1,290,0>, <"pt1.pt","at1.at",1,741,0>, <"pt1.pt","be1.be",1,329,0>, <"pt1.pt","ch1.ch",1,290,0>, <"pt1.pt","cz1.cz",1,685,0>, <"pt1.pt","de1.de",1,448,0>, <"pt1.pt","es1.es",1,32,1>, <"pt1.pt","fr1.fr",1,235,0>, <"pt1.pt","gr1.gr",1,1071,0>, <"pt1.pt","hr1.hr",1,680,0>, <"pt1.pt","hu1.hu",1,874,0>, <"pt1.pt","ie1.ie",1,222,0>, <"pt1.pt","il1.il",1,1975,0>, <"pt1.pt","it1.it",1,382,0>, <"pt1.pt","lu1.lu",1,352,0>, <"pt1.pt","nl1.nl",1,384,0>, <"pt1.pt","ny1.ny",1,4204,0>, <"pt1.pt","pl1.pl",1,865,0>, <"pt1.pt","se1.se",1,1156,0>, <"pt1.pt","si1.si",1,613,0>, <"pt1.pt","sk1.sk",1,779,0>, <"pt1.pt","uk1.uk",1,245,1>, <"se1.se","at1.at",1,127,0>, <"se1.se","be1.be",1,255,0>, <"se1.se","ch1.ch",1,311,0>, <"se1.se","cz1.cz",1,98,0>, <"se1.se","de1.de",1,170,1>, <"se1.se","es1.es",1,825,0>, <"se1.se","fr1.fr",1,351,0>, <"se1.se","gr1.gr",1,490,0>, <"se1.se","hr1.hr",1,187,0>, <"se1.se","hu1.hu",1,142,0>, <"se1.se","ie1.ie",1,619,0>, <"se1.se","il1.il",1,1032,0>, <"se1.se","it1.it",1,269,0>, <"se1.se","lu1.lu",1,233,0>, <"se1.se","nl1.nl",1,217,0>, <"se1.se","ny1.ny",1,8780,0>, <"se1.se","pl1.pl",1,49,1>, <"se1.se","pt1.pt",1,1156,0>, <"se1.se","si1.si",1,188,0>, <"se1.se","sk1.sk",1,126,0>, <"se1.se","uk1.uk",1,386,1>, <"si1.si","at1.at",1,8,1>, <"si1.si","be1.be",1,126,0>, <"si1.si","ch1.ch",1,70,0>, <"si1.si","cz1.cz",1,16,0>, <"si1.si","de1.de",1,50,0>, <"si1.si","es1.es",1,364,0>, <"si1.si","fr1.fr",1,156,0>, <"si1.si","gr1.gr",1,147,0>, <"si1.si","hr1.hr",1,2,1>, <"si1.si","hu1.hu",1,23,0>, <"si1.si","ie1.ie",1,485,0>, <"si1.si","il1.il",1,607,0>, <"si1.si","it1.it",1,29,0>, <"si1.si","lu1.lu",1,83,0>, <"si1.si","nl1.nl",1,131,0>, <"si1.si","ny1.ny",1,7854,0>, <"si1.si","pl1.pl",1,46,0>, <"si1.si","pt1.pt",1,613,0>, <"si1.si","se1.se",1,188,0>, <"si1.si","sk1.sk",1,11,0>, <"si1.si","uk1.uk",1,244,0>, <"sk1.sk","at1.at",1,1,0>, <"sk1.sk","be1.be",1,171,0>, <"sk1.sk","ch1.ch",1,125,0>, <"sk1.sk","cz1.cz",1,11,1>, <"sk1.sk","de1.de",1,75,0>, <"sk1.sk","es1.es",1,494,0>, <"sk1.sk","fr1.fr",1,219,0>, <"sk1.sk","gr1.gr",1,145,0>, <"sk1.sk","hr1.hr",1,7,0>, <"sk1.sk","hu1.hu",1,4,1>, <"sk1.sk","ie1.ie",1,574,0>, <"sk1.sk","il1.il",1,571,0>, <"sk1.sk","it1.it",1,70,0>, <"sk1.sk","lu1.lu",1,123,0>, <"sk1.sk","nl1.nl",1,166,0>, <"sk1.sk","ny1.ny",1,8350,0>, <"sk1.sk","pl1.pl",1,18,0>, <"sk1.sk","pt1.pt",1,779,0>, <"sk1.sk","se1.se",1,126,0>, <"sk1.sk","si1.si",1,11,0>, <"sk1.sk","uk1.uk",1,309,0>, <"uk1.uk","at1.at",1,283,0>, <"uk1.uk","be1.be",1,20,0>, <"uk1.uk","ch1.ch",1,67,0>, <"uk1.uk","cz1.cz",1,214,0>, <"uk1.uk","de1.de",1,80,0>, <"uk1.uk","es1.es",1,136,0>, <"uk1.uk","fr1.fr",1,13,1>, <"uk1.uk","gr1.gr",1,745,0>, <"uk1.uk","hr1.hr",1,291,0>, <"uk1.uk","hu1.hu",1,385,0>, <"uk1.uk","ie1.ie",1,41,1>, <"uk1.uk","il1.il",1,1598,0>, <"uk1.uk","it1.it",1,123,0>, <"uk1.uk","lu1.lu",1,43,0>, <"uk1.uk","nl1.nl",1,26,1>, <"uk1.uk","ny1.ny",1,5566,1>, <"uk1.uk","pl1.pl",1,290,0>, <"uk1.uk","pt1.pt",1,245,1>, <"uk1.uk","se1.se",1,386,1>, <"uk1.uk","si1.si",1,244,0>, <"uk1.uk","sk1.sk",1,309,0>};
Demands = {<"at1.at","be1.be",10>, <"at1.at","ch1.ch",20>, <"at1.at","cz1.cz",30>, <"at1.at","de1.de",40>, <"at1.at","es1.es",50>, <"at1.at","fr1.fr",60>, <"at1.at","gr1.gr",70>, <"at1.at","hr1.hr",80>, <"at1.at","hu1.hu",90>, <"at1.at","ie1.ie",100>, <"at1.at","il1.il",110>, <"at1.at","it1.it",120>, <"at1.at","lu1.lu",130>, <"at1.at","nl1.nl",140>, <"at1.at","ny1.ny",150>, <"at1.at","pl1.pl",160>, <"at1.at","pt1.pt",170>, <"at1.at","se1.se",180>, <"at1.at","si1.si",190>, <"at1.at","sk1.sk",200>, <"at1.at","uk1.uk",210>, <"be1.be","at1.at",10>, <"be1.be","ch1.ch",10>, <"be1.be","cz1.cz",20>, <"be1.be","de1.de",30>, <"be1.be","es1.es",40>, <"be1.be","fr1.fr",50>, <"be1.be","gr1.gr",60>, <"be1.be","hr1.hr",70>, <"be1.be","hu1.hu",80>, <"be1.be","ie1.ie",90>, <"be1.be","il1.il",100>, <"be1.be","it1.it",110>, <"be1.be","lu1.lu",120>, <"be1.be","nl1.nl",130>, <"be1.be","ny1.ny",140>, <"be1.be","pl1.pl",150>, <"be1.be","pt1.pt",160>, <"be1.be","se1.se",170>, <"be1.be","si1.si",180>, <"be1.be","sk1.sk",190>, <"be1.be","uk1.uk",200>, <"ch1.ch","at1.at",20>, <"ch1.ch","be1.be",10>, <"ch1.ch","cz1.cz",10>, <"ch1.ch","de1.de",20>, <"ch1.ch","es1.es",30>, <"ch1.ch","fr1.fr",40>, <"ch1.ch","gr1.gr",50>, <"ch1.ch","hr1.hr",60>, <"ch1.ch","hu1.hu",70>, <"ch1.ch","ie1.ie",80>, <"ch1.ch","il1.il",90>, <"ch1.ch","it1.it",100>, <"ch1.ch","lu1.lu",110>, <"ch1.ch","nl1.nl",120>, <"ch1.ch","ny1.ny",130>, <"ch1.ch","pl1.pl",140>, <"ch1.ch","pt1.pt",150>, <"ch1.ch","se1.se",160>, <"ch1.ch","si1.si",170>, <"ch1.ch","sk1.sk",180>, <"ch1.ch","uk1.uk",190>, <"cz1.cz","at1.at",30>, <"cz1.cz","be1.be",20>, <"cz1.cz","ch1.ch",10>, <"cz1.cz","de1.de",10>, <"cz1.cz","es1.es",20>, <"cz1.cz","fr1.fr",30>, <"cz1.cz","gr1.gr",40>, <"cz1.cz","hr1.hr",50>, <"cz1.cz","hu1.hu",60>, <"cz1.cz","ie1.ie",70>, <"cz1.cz","il1.il",80>, <"cz1.cz","it1.it",90>, <"cz1.cz","lu1.lu",100>, <"cz1.cz","nl1.nl",110>, <"cz1.cz","ny1.ny",120>, <"cz1.cz","pl1.pl",130>, <"cz1.cz","pt1.pt",140>, <"cz1.cz","se1.se",150>, <"cz1.cz","si1.si",160>, <"cz1.cz","sk1.sk",170>, <"cz1.cz","uk1.uk",180>, <"de1.de","at1.at",40>, <"de1.de","be1.be",30>, <"de1.de","ch1.ch",20>, <"de1.de","cz1.cz",10>, <"de1.de","es1.es",10>, <"de1.de","fr1.fr",20>, <"de1.de","gr1.gr",30>, <"de1.de","hr1.hr",40>, <"de1.de","hu1.hu",50>, <"de1.de","ie1.ie",60>, <"de1.de","il1.il",70>, <"de1.de","it1.it",80>, <"de1.de","lu1.lu",90>, <"de1.de","nl1.nl",100>, <"de1.de","ny1.ny",110>, <"de1.de","pl1.pl",120>, <"de1.de","pt1.pt",130>, <"de1.de","se1.se",140>, <"de1.de","si1.si",150>, <"de1.de","sk1.sk",160>, <"de1.de","uk1.uk",170>, <"es1.es","at1.at",50>, <"es1.es","be1.be",40>, <"es1.es","ch1.ch",30>, <"es1.es","cz1.cz",20>, <"es1.es","de1.de",10>, <"es1.es","fr1.fr",10>, <"es1.es","gr1.gr",20>, <"es1.es","hr1.hr",30>, <"es1.es","hu1.hu",40>, <"es1.es","ie1.ie",50>, <"es1.es","il1.il",60>, <"es1.es","it1.it",70>, <"es1.es","lu1.lu",80>, <"es1.es","nl1.nl",90>, <"es1.es","ny1.ny",100>, <"es1.es","pl1.pl",110>, <"es1.es","pt1.pt",120>, <"es1.es","se1.se",130>, <"es1.es","si1.si",140>, <"es1.es","sk1.sk",150>, <"es1.es","uk1.uk",160>, <"fr1.fr","at1.at",60>, <"fr1.fr","be1.be",50>, <"fr1.fr","ch1.ch",40>, <"fr1.fr","cz1.cz",30>, <"fr1.fr","de1.de",20>, <"fr1.fr","es1.es",10>, <"fr1.fr","gr1.gr",10>, <"fr1.fr","hr1.hr",20>, <"fr1.fr","hu1.hu",30>, <"fr1.fr","ie1.ie",40>, <"fr1.fr","il1.il",50>, <"fr1.fr","it1.it",60>, <"fr1.fr","lu1.lu",70>, <"fr1.fr","nl1.nl",80>, <"fr1.fr","ny1.ny",90>, <"fr1.fr","pl1.pl",100>, <"fr1.fr","pt1.pt",110>, <"fr1.fr","se1.se",120>, <"fr1.fr","si1.si",130>, <"fr1.fr","sk1.sk",140>, <"fr1.fr","uk1.uk",150>, <"gr1.gr","at1.at",70>, <"gr1.gr","be1.be",60>, <"gr1.gr","ch1.ch",50>, <"gr1.gr","cz1.cz",40>, <"gr1.gr","de1.de",30>, <"gr1.gr","es1.es",20>, <"gr1.gr","fr1.fr",10>, <"gr1.gr","hr1.hr",10>, <"gr1.gr","hu1.hu",20>, <"gr1.gr","ie1.ie",30>, <"gr1.gr","il1.il",40>, <"gr1.gr","it1.it",50>, <"gr1.gr","lu1.lu",60>, <"gr1.gr","nl1.nl",70>, <"gr1.gr","ny1.ny",80>, <"gr1.gr","pl1.pl",90>, <"gr1.gr","pt1.pt",100>, <"gr1.gr","se1.se",110>, <"gr1.gr","si1.si",120>, <"gr1.gr","sk1.sk",130>, <"gr1.gr","uk1.uk",140>, <"hr1.hr","at1.at",80>, <"hr1.hr","be1.be",70>, <"hr1.hr","ch1.ch",60>, <"hr1.hr","cz1.cz",50>, <"hr1.hr","de1.de",40>, <"hr1.hr","es1.es",30>, <"hr1.hr","fr1.fr",20>, <"hr1.hr","gr1.gr",10>, <"hr1.hr","hu1.hu",10>, <"hr1.hr","ie1.ie",20>, <"hr1.hr","il1.il",30>, <"hr1.hr","it1.it",40>, <"hr1.hr","lu1.lu",50>, <"hr1.hr","nl1.nl",60>, <"hr1.hr","ny1.ny",70>, <"hr1.hr","pl1.pl",80>, <"hr1.hr","pt1.pt",90>, <"hr1.hr","se1.se",100>, <"hr1.hr","si1.si",110>, <"hr1.hr","sk1.sk",120>, <"hr1.hr","uk1.uk",130>, <"hu1.hu","at1.at",90>, <"hu1.hu","be1.be",80>, <"hu1.hu","ch1.ch",70>, <"hu1.hu","cz1.cz",60>, <"hu1.hu","de1.de",50>, <"hu1.hu","es1.es",40>, <"hu1.hu","fr1.fr",30>, <"hu1.hu","gr1.gr",20>, <"hu1.hu","hr1.hr",10>, <"hu1.hu","ie1.ie",10>, <"hu1.hu","il1.il",20>, <"hu1.hu","it1.it",30>, <"hu1.hu","lu1.lu",40>, <"hu1.hu","nl1.nl",50>, <"hu1.hu","ny1.ny",60>, <"hu1.hu","pl1.pl",70>, <"hu1.hu","pt1.pt",80>, <"hu1.hu","se1.se",90>, <"hu1.hu","si1.si",100>, <"hu1.hu","sk1.sk",110>, <"hu1.hu","uk1.uk",120>, <"ie1.ie","at1.at",100>, <"ie1.ie","be1.be",90>, <"ie1.ie","ch1.ch",80>, <"ie1.ie","cz1.cz",70>, <"ie1.ie","de1.de",60>, <"ie1.ie","es1.es",50>, <"ie1.ie","fr1.fr",40>, <"ie1.ie","gr1.gr",30>, <"ie1.ie","hr1.hr",20>, <"ie1.ie","hu1.hu",10>, <"ie1.ie","il1.il",10>, <"ie1.ie","it1.it",20>, <"ie1.ie","lu1.lu",30>, <"ie1.ie","nl1.nl",40>, <"ie1.ie","ny1.ny",50>, <"ie1.ie","pl1.pl",60>, <"ie1.ie","pt1.pt",70>, <"ie1.ie","se1.se",80>, <"ie1.ie","si1.si",90>, <"ie1.ie","sk1.sk",100>, <"ie1.ie","uk1.uk",110>, <"il1.il","at1.at",110>, <"il1.il","be1.be",100>, <"il1.il","ch1.ch",90>, <"il1.il","cz1.cz",80>, <"il1.il","de1.de",70>, <"il1.il","es1.es",60>, <"il1.il","fr1.fr",50>, <"il1.il","gr1.gr",40>, <"il1.il","hr1.hr",30>, <"il1.il","hu1.hu",20>, <"il1.il","ie1.ie",10>, <"il1.il","it1.it",10>, <"il1.il","lu1.lu",20>, <"il1.il","nl1.nl",30>, <"il1.il","ny1.ny",40>, <"il1.il","pl1.pl",50>, <"il1.il","pt1.pt",60>, <"il1.il","se1.se",70>, <"il1.il","si1.si",80>, <"il1.il","sk1.sk",90>, <"il1.il","uk1.uk",100>, <"it1.it","at1.at",120>, <"it1.it","be1.be",110>, <"it1.it","ch1.ch",100>, <"it1.it","cz1.cz",90>, <"it1.it","de1.de",80>, <"it1.it","es1.es",70>, <"it1.it","fr1.fr",60>, <"it1.it","gr1.gr",50>, <"it1.it","hr1.hr",40>, <"it1.it","hu1.hu",30>, <"it1.it","ie1.ie",20>, <"it1.it","il1.il",10>, <"it1.it","lu1.lu",10>, <"it1.it","nl1.nl",20>, <"it1.it","ny1.ny",30>, <"it1.it","pl1.pl",40>, <"it1.it","pt1.pt",50>, <"it1.it","se1.se",60>, <"it1.it","si1.si",70>, <"it1.it","sk1.sk",80>, <"it1.it","uk1.uk",90>, <"lu1.lu","at1.at",130>, <"lu1.lu","be1.be",120>, <"lu1.lu","ch1.ch",110>, <"lu1.lu","cz1.cz",100>, <"lu1.lu","de1.de",90>, <"lu1.lu","es1.es",80>, <"lu1.lu","fr1.fr",70>, <"lu1.lu","gr1.gr",60>, <"lu1.lu","hr1.hr",50>, <"lu1.lu","hu1.hu",40>, <"lu1.lu","ie1.ie",30>, <"lu1.lu","il1.il",20>, <"lu1.lu","it1.it",10>, <"lu1.lu","nl1.nl",10>, <"lu1.lu","ny1.ny",20>, <"lu1.lu","pl1.pl",30>, <"lu1.lu","pt1.pt",40>, <"lu1.lu","se1.se",50>, <"lu1.lu","si1.si",60>, <"lu1.lu","sk1.sk",70>, <"lu1.lu","uk1.uk",80>, <"nl1.nl","at1.at",140>, <"nl1.nl","be1.be",130>, <"nl1.nl","ch1.ch",120>, <"nl1.nl","cz1.cz",110>, <"nl1.nl","de1.de",100>, <"nl1.nl","es1.es",90>, <"nl1.nl","fr1.fr",80>, <"nl1.nl","gr1.gr",70>, <"nl1.nl","hr1.hr",60>, <"nl1.nl","hu1.hu",50>, <"nl1.nl","ie1.ie",40>, <"nl1.nl","il1.il",30>, <"nl1.nl","it1.it",20>, <"nl1.nl","lu1.lu",10>, <"nl1.nl","ny1.ny",10>, <"nl1.nl","pl1.pl",20>, <"nl1.nl","pt1.pt",30>, <"nl1.nl","se1.se",40>, <"nl1.nl","si1.si",50>, <"nl1.nl","sk1.sk",60>, <"nl1.nl","uk1.uk",70>, <"ny1.ny","at1.at",150>, <"ny1.ny","be1.be",140>, <"ny1.ny","ch1.ch",130>, <"ny1.ny","cz1.cz",120>, <"ny1.ny","de1.de",110>, <"ny1.ny","es1.es",100>, <"ny1.ny","fr1.fr",90>, <"ny1.ny","gr1.gr",80>, <"ny1.ny","hr1.hr",70>, <"ny1.ny","hu1.hu",60>, <"ny1.ny","ie1.ie",50>, <"ny1.ny","il1.il",40>, <"ny1.ny","it1.it",30>, <"ny1.ny","lu1.lu",20>, <"ny1.ny","nl1.nl",10>, <"ny1.ny","pl1.pl",10>, <"ny1.ny","pt1.pt",20>, <"ny1.ny","se1.se",30>, <"ny1.ny","si1.si",40>, <"ny1.ny","sk1.sk",50>, <"ny1.ny","uk1.uk",60>, <"pl1.pl","at1.at",160>, <"pl1.pl","be1.be",150>, <"pl1.pl","ch1.ch",140>, <"pl1.pl","cz1.cz",130>, <"pl1.pl","de1.de",120>, <"pl1.pl","es1.es",110>, <"pl1.pl","fr1.fr",100>, <"pl1.pl","gr1.gr",90>, <"pl1.pl","hr1.hr",80>, <"pl1.pl","hu1.hu",70>, <"pl1.pl","ie1.ie",60>, <"pl1.pl","il1.il",50>, <"pl1.pl","it1.it",40>, <"pl1.pl","lu1.lu",30>, <"pl1.pl","nl1.nl",20>, <"pl1.pl","ny1.ny",10>, <"pl1.pl","pt1.pt",10>, <"pl1.pl","se1.se",20>, <"pl1.pl","si1.si",30>, <"pl1.pl","sk1.sk",40>, <"pl1.pl","uk1.uk",50>, <"pt1.pt","at1.at",170>, <"pt1.pt","be1.be",160>, <"pt1.pt","ch1.ch",150>, <"pt1.pt","cz1.cz",140>, <"pt1.pt","de1.de",130>, <"pt1.pt","es1.es",120>, <"pt1.pt","fr1.fr",110>, <"pt1.pt","gr1.gr",100>, <"pt1.pt","hr1.hr",90>, <"pt1.pt","hu1.hu",80>, <"pt1.pt","ie1.ie",70>, <"pt1.pt","il1.il",60>, <"pt1.pt","it1.it",50>, <"pt1.pt","lu1.lu",40>, <"pt1.pt","nl1.nl",30>, <"pt1.pt","ny1.ny",20>, <"pt1.pt","pl1.pl",10>, <"pt1.pt","se1.se",10>, <"pt1.pt","si1.si",20>, <"pt1.pt","sk1.sk",30>, <"pt1.pt","uk1.uk",40>, <"se1.se","at1.at",180>, <"se1.se","be1.be",170>, <"se1.se","ch1.ch",160>, <"se1.se","cz1.cz",150>, <"se1.se","de1.de",140>, <"se1.se","es1.es",130>, <"se1.se","fr1.fr",120>, <"se1.se","gr1.gr",110>, <"se1.se","hr1.hr",100>, <"se1.se","hu1.hu",90>, <"se1.se","ie1.ie",80>, <"se1.se","il1.il",70>, <"se1.se","it1.it",60>, <"se1.se","lu1.lu",50>, <"se1.se","nl1.nl",40>, <"se1.se","ny1.ny",30>, <"se1.se","pl1.pl",20>, <"se1.se","pt1.pt",10>, <"se1.se","si1.si",10>, <"se1.se","sk1.sk",20>, <"se1.se","uk1.uk",30>, <"si1.si","at1.at",190>, <"si1.si","be1.be",180>, <"si1.si","ch1.ch",170>, <"si1.si","cz1.cz",160>, <"si1.si","de1.de",150>, <"si1.si","es1.es",140>, <"si1.si","fr1.fr",130>, <"si1.si","gr1.gr",120>, <"si1.si","hr1.hr",110>, <"si1.si","hu1.hu",100>, <"si1.si","ie1.ie",90>, <"si1.si","il1.il",80>, <"si1.si","it1.it",70>, <"si1.si","lu1.lu",60>, <"si1.si","nl1.nl",50>, <"si1.si","ny1.ny",40>, <"si1.si","pl1.pl",30>, <"si1.si","pt1.pt",20>, <"si1.si","se1.se",10>, <"si1.si","sk1.sk",10>, <"si1.si","uk1.uk",20>, <"sk1.sk","at1.at",200>, <"sk1.sk","be1.be",190>, <"sk1.sk","ch1.ch",180>, <"sk1.sk","cz1.cz",170>, <"sk1.sk","de1.de",160>, <"sk1.sk","es1.es",150>, <"sk1.sk","fr1.fr",140>, <"sk1.sk","gr1.gr",130>, <"sk1.sk","hr1.hr",120>, <"sk1.sk","hu1.hu",110>, <"sk1.sk","ie1.ie",100>, <"sk1.sk","il1.il",90>, <"sk1.sk","it1.it",80>, <"sk1.sk","lu1.lu",70>, <"sk1.sk","nl1.nl",60>, <"sk1.sk","ny1.ny",50>, <"sk1.sk","pl1.pl",40>, <"sk1.sk","pt1.pt",30>, <"sk1.sk","se1.se",20>, <"sk1.sk","si1.si",10>, <"sk1.sk","uk1.uk",10>, <"uk1.uk","at1.at",210>, <"uk1.uk","be1.be",200>, <"uk1.uk","ch1.ch",190>, <"uk1.uk","cz1.cz",180>, <"uk1.uk","de1.de",170>, <"uk1.uk","es1.es",160>, <"uk1.uk","fr1.fr",150>, <"uk1.uk","gr1.gr",140>, <"uk1.uk","hr1.hr",130>, <"uk1.uk","hu1.hu",120>, <"uk1.uk","ie1.ie",110>, <"uk1.uk","il1.il",100>, <"uk1.uk","it1.it",90>, <"uk1.uk","lu1.lu",80>, <"uk1.uk","nl1.nl",70>, <"uk1.uk","ny1.ny",60>, <"uk1.uk","pl1.pl",50>, <"uk1.uk","pt1.pt",40>, <"uk1.uk","se1.se",30>, <"uk1.uk","si1.si",20>, <"uk1.uk","sk1.sk",10>};
